language Essence 1.3

letting class be function(1 --> 1, 2 --> 1, 3 --> 1, 4 --> 1, 5 --> 1, 6 --> 1, 7 --> 1)
letting deck_length be 4
letting deck_width be 21
letting length be function(1 --> 4, 2 --> 4, 3 --> 1, 4 --> 2, 5 --> 2, 6 --> 1, 7 --> 2)
letting n_classes be 1
letting n_containers be 7
letting separation be function()
letting width be function(1 --> 2, 2 --> 6, 3 --> 3, 4 --> 5, 5 --> 3, 6 --> 1, 7 --> 3)
